

start = [|
0, 3, 0, 2, 0, 0, 3|
1, 0, 1, 0, 0, 3, 0|
0, 3, 0, 2, 0, 0, 0|
0, 0, 0, 0, 0, 0, 0|
4, 0, 2, 0, 0, 0, 2|
0, 0, 0, 0, 0, 0, 0|
2, 0, 0, 3, 0, 3, 0|];

/*
start = [|
0, 0, 0, 0, 0, 0, 0|
0, 2, 0, 4, 0, 2, 0|
0, 0, 0, 0, 0, 0, 0|
0, 3, 0, 1, 0, 0, 0|
0, 0, 0, 0, 0, 0, 0|
0, 2, 0, 4, 0, 2, 0|
0, 0, 0, 0, 0, 0, 0|];
*/

/*
start = [|
0, 0, 0, 0, 0, 0, 0|
0, 0, 0, 3, 0, 2, 0|
0, 0, 0, 0, 0, 0, 0|
0, 1, 0, 2, 0, 3, 0|
0, 0, 0, 0, 0, 0, 0|
0, 0, 0, 3, 0, 2, 0|
0, 0, 0, 0, 0, 0, 0|];*/

/*
start = [|
0, 0, 0, 0, 0, 0, 0|
0, 0, 0, 0, 0, 0, 0|
0, 0, 0, 0, 0, 0, 0|
3, 0, 2, 0, 3, 0, 2|
0, 0, 0, 0, 0, 0, 0|
0, 0, 0, 0, 0, 0, 0|
0, 0, 0, 0, 0, 0, 0|];*/

/*start = [|
0, 0, 0, 0, 0, 0, 0|
0, 0, 0, 0, 0, 0, 0|
0, 0, 0, 0, 0, 0, 0|
0, 0, 0, 0, 0, 0, 0|
0, 0, 0, 0, 0, 0, 0|
0, 0, 0, 0, 0, 0, 0|
0, 0, 0, 0, 0, 0, 0|];*/

/*
start = [|
0, 0, 0, 0, 0, 0, 0|
0, 0, 0, 0, 0, 0, 0|
0, 0, 2, 0, 0, 2, 0|
0, 0, 0, 0, 0, 0, 0|
0, 0, 1, 0, 0, 1, 0|
0, 0, 0, 0, 0, 0, 0|
0, 0, 1, 0, 0, 1, 0|];*/


/* easy */
/*
start = [|
2, 0, 3, 0, 0, 3, 0|
0, 0, 0, 0, 0, 0, 0|
2, 0, 1, 0, 0, 0, 0|
0, 0, 0, 0, 0, 0, 0|
1, 0, 3, 0, 0, 2, 0|
0, 0, 3, 0, 1, 0, 0|
0, 0, 1, 0, 0, 0, 0|];*/


/* medium */
/*
start = [|
2, 0, 3, 0, 0, 4, 1|
0, 0, 0, 0, 0, 0, 0|
3, 0, 3, 0, 0, 0, 0|
0, 0, 0, 0, 0, 0, 0|
2, 0, 5, 0, 0, 3, 0|
0, 0, 3, 0, 1, 0, 0|
0, 0, 1, 0, 0, 1, 0|];
*/

/* hard */
/*
start = [|
4, 0, 3, 0, 3, 0, 2|
0, 0, 2, 0, 0, 0, 0|
2, 0, 0, 0, 0, 0, 0|
2, 3, 3, 0, 3, 0, 0|
0, 0, 0, 0, 0, 0, 0|
3, 3, 0, 0, 0, 0, 0|
0, 3, 0, 0, 4, 0, 2|];*/
